(declare-const i Int)
(declare-const sum Int)
(declare-const SIZE Int)
(declare-const |i'| Int)
(declare-const term_to_project_onto0_integralized Int)
(declare-const term_to_project_onto_integralized Int)
(declare-const |sum'| Int)
(assert (and (<= (- sum) 0) (<= (+ (- SIZE) 1) 0) (<= (- i) 0)
               (= (+ (- SIZE) 40000) 0) (<= (+ i (- SIZE) 1) 0)
               (= (+ |sum'| (- i) (- sum) -1) 0) (= (+ |i'| (- i) -1) 0)
               (= (+ term_to_project_onto0_integralized (- (+ |i'| (- i)))) 0)
               (= (+ term_to_project_onto_integralized (- (+ |sum'| (- sum)))) 0)))
(check-sat)